============================[ Problem Statistics ]=============================|                                                                             ||  Number of variables:          4242                                         ||  Number of clauses:           10113                                         ||  Parse time:                   0.50 s                                       ||                                                                             |============================[ Search Statistics ]==============================| Conflicts |          ORIGINAL         |          LEARNT          | Progress ||           |    Vars  Clauses Literals |    Limit  Clauses Lit/Cl |          |===============================================================================|       100 |    1591     6318   799339 |     2316      100     53 | 62.501 % ||       250 |    1591     6318   799339 |     2548      250     75 | 62.495 % |===============================================================================restarts              : 3conflicts             : 281            (372 /sec)decisions             : 545            (0.00 % random) (721 /sec)propagations          : 11813          (15626 /sec)conflict literals     : 21848          (94.79 % deleted)CPU time              : 0.756 sSATISFIABLE